qbf_easy_train/easy_2253_SAT.qdimacs
p cnf 26 68
a 17 20 0
e 1 2 3 4 5 6 7 8 9 10 11 12 13 14 15 16 18 19 21 22 23 24 25 26 0
1 2 0
-1 2 0
5 -3 0
5 -4 0
3 4 -5 0
7 4 -8 0
-7 -4 -8 0
7 -4 8 0
-7 4 8 0
9 6 0
9 8 0
-6 -8 -9 0
-10 -5 0
-10 9 0
5 -9 10 0
-11 -1 0
-11 -1 0
1 11 0
10 11 -12 0
-10 -11 -12 0
10 -11 12 0
-10 11 12 0
-13 -8 0
-13 -4 0
8 4 13 0
13 -14 -15 0
-13 14 -15 0
13 14 15 0
-13 -14 15 0
-16 15 0
-16 13 0
-15 -13 16 0
-17 13 -18 0
17 -13 -18 0
-17 -13 18 0
17 13 18 0
19 -13 0
19 18 0
13 -18 -19 0
-19 20 -21 0
19 -20 -21 0
-19 -20 21 0
19 20 21 0
-16 21 -22 0
16 -21 -22 0
-16 -21 22 0
16 21 22 0
-12 22 -23 0
12 -22 -23 0
-12 -22 23 0
12 22 23 0
-2 -23 -24 0
2 23 -24 0
-2 23 24 0
2 -23 24 0
-25 -4 0
-25 14 0
4 -14 25 0
-26 24 0
-26 25 0
-24 -25 26 0
9 18 -6 -19 -24 15 25 -4 0
-23 -4 -5 19 0
4 8 -23 -19 25 0
-6 16 -4 -7 -8 1 13 0
-5 -18 8 17 4 0
-15 13 25 6 0
26 0
