sat_easy_train/easy_2253_SAT.dimacs
p cnf 97 320
2 -1 0
2 -1 0
1 -2 0
-1 -2 -3 0
1 2 -3 0
-1 2 3 0
1 -2 3 0
6 -4 0
6 -5 0
4 5 -6 0
8 5 0
8 7 0
-5 -7 -8 0
9 8 0
9 -1 0
-8 1 -9 0
11 -9 0
11 -10 0
9 10 -11 0
6 11 -12 0
-6 -11 -12 0
6 -11 12 0
-6 11 12 0
-3 12 -13 0
3 -12 -13 0
-3 -12 13 0
3 12 13 0
-14 -13 0
-14 -3 0
13 3 14 0
-16 7 0
-16 15 0
-7 -15 16 0
-17 7 0
-17 16 0
-7 -16 17 0
18 -3 0
18 -17 0
3 17 -18 0
-3 4 -20 0
3 -4 -20 0
-3 -4 20 0
3 4 20 0
-20 21 -22 0
20 -21 -22 0
-20 -21 22 0
20 21 22 0
-19 22 -23 0
19 -22 -23 0
-19 -22 23 0
19 22 23 0
-8 -23 -24 0
8 23 -24 0
-8 23 24 0
8 -23 24 0
-25 18 0
-25 -24 0
-18 24 25 0
-19 -21 -26 0
19 21 -26 0
-19 21 26 0
19 -21 26 0
27 -21 0
27 26 0
21 -26 -27 0
-29 -21 0
-29 20 0
21 -20 29 0
30 -28 0
30 -29 0
28 29 -30 0
-31 -27 0
-31 30 0
27 -30 31 0
32 13 -33 0
-32 -13 -33 0
32 -13 33 0
-32 13 33 0
-34 -33 0
-34 -17 0
33 17 34 0
35 -17 0
35 -34 0
17 34 -35 0
11 -13 -36 0
-11 13 -36 0
11 13 36 0
-11 -13 36 0
39 -37 0
39 -38 0
37 38 -39 0
-40 -36 0
-40 -39 0
36 39 40 0
35 -40 -41 0
-35 40 -41 0
35 40 41 0
-35 -40 41 0
43 -8 0
43 12 0
8 -12 -43 0
-42 43 -44 0
42 -43 -44 0
-42 -43 44 0
42 43 44 0
-45 -10 0
-45 38 0
10 -38 45 0
46 -22 0
46 45 0
22 -45 -46 0
-47 42 0
-47 -1 0
-42 1 47 0
-46 47 -48 0
46 -47 -48 0
-46 -47 48 0
46 47 48 0
49 48 0
49 38 0
-48 -38 -49 0
50 49 0
50 -26 0
-49 26 -50 0
51 -43 -52 0
-51 43 -52 0
51 43 52 0
-51 -43 52 0
54 53 0
54 52 0
-53 -52 -54 0
1 54 -55 0
-1 -54 -55 0
1 -54 55 0
-1 54 55 0
-56 -52 0
-56 55 0
52 -55 56 0
-57 50 0
-57 56 0
-50 -56 57 0
44 -57 -58 0
-44 57 -58 0
44 57 58 0
-44 -57 58 0
-41 58 -59 0
41 -58 -59 0
-41 -58 59 0
41 58 59 0
31 59 -60 0
-31 -59 -60 0
31 -59 60 0
-31 59 60 0
25 -60 -61 0
-25 60 -61 0
25 60 61 0
-25 -60 61 0
14 -61 -62 0
-14 61 -62 0
14 61 62 0
-14 -61 62 0
54 -42 -63 0
-54 42 -63 0
54 42 63 0
-54 -42 63 0
17 53 -64 0
-17 -53 -64 0
17 -53 64 0
-17 53 64 0
65 63 0
65 -64 0
-63 64 -65 0
-5 37 -66 0
5 -37 -66 0
-5 -37 66 0
5 37 66 0
-45 7 -67 0
45 -7 -67 0
-45 -7 67 0
45 7 67 0
-68 1 0
-68 23 0
-1 -23 68 0
-69 -67 0
-69 68 0
67 -68 69 0
66 69 -70 0
-66 -69 -70 0
66 -69 70 0
-66 69 70 0
-71 -65 0
-71 70 0
65 -70 71 0
32 11 -72 0
-32 -11 -72 0
32 -11 72 0
-32 11 72 0
72 53 -73 0
-72 -53 -73 0
72 -53 73 0
-72 53 73 0
74 -8 0
74 32 0
8 -32 -74 0
-75 -73 0
-75 74 0
73 -74 75 0
-20 -22 -76 0
20 22 -76 0
-20 22 76 0
20 -22 76 0
77 15 0
77 4 0
-15 -4 -77 0
78 12 0
78 77 0
-12 -77 -78 0
79 16 0
79 78 0
-16 -78 -79 0
-80 76 0
-80 79 0
-76 -79 80 0
75 -80 -81 0
-75 80 -81 0
75 80 81 0
-75 -80 81 0
10 -29 -82 0
-10 29 -82 0
10 29 82 0
-10 -29 82 0
83 -81 0
83 -82 0
81 82 -83 0
84 -71 0
84 -83 0
71 83 -84 0
85 62 0
85 84 0
-62 -84 -85 0
4 86 -87 0
-4 -86 -87 0
4 -86 87 0
-4 86 87 0
88 -87 0
88 -10 0
87 10 -88 0
89 -47 0
89 87 0
47 -87 -89 0
7 -89 -90 0
-7 89 -90 0
7 89 90 0
-7 -89 90 0
91 -45 0
91 -9 0
45 9 -91 0
90 -91 -92 0
-90 91 -92 0
90 91 92 0
-90 -91 92 0
-93 -11 0
-93 9 0
11 -9 93 0
-94 -93 0
-94 -17 0
93 17 94 0
-95 -92 0
-95 -94 0
92 94 95 0
96 88 0
96 -95 0
-88 95 -96 0
-85 -96 -97 0
85 96 -97 0
-85 96 97 0
85 -96 97 0
-87 -18 19 -79 0
-35 83 25 50 86 32 0
75 -51 37 -65 -54 0
59 12 -92 -77 -96 0
-48 93 4 9 35 0
57 12 82 8 0
-53 -47 85 -27 95 43 0
-31 13 -28 -40 0
-30 48 -17 -43 -49 -18 0
18 -38 74 77 -57 0
-20 22 96 -58 82 13 0
-81 24 0
22 -84 0
-96 -27 69 0
-16 -93 42 31 -49 53 0
-62 50 14 57 5 0
2 -82 13 -61 0
-80 -89 -60 67 0
-49 11 82 0
-78 47 6 0
82 -26 -59 92 0
81 -83 -7 0
81 37 -52 21 -70 0
46 62 -48 -17 21 0
-73 22 -97 20 0
41 -84 47 76 -33 36 0
-34 5 -91 -17 42 0
-47 -50 59 57 -94 0
-54 -29 18 0
96 79 -82 0
44 -78 -77 0
-28 -69 38 -13 93 19 0
10 70 47 -38 0
-83 30 0
-29 -59 15 0
-85 -68 38 10 89 5 0
71 33 53 0
81 -62 -1 0
16 29 31 75 -73 -52 0
-55 42 0
68 2 -30 96 -28 0
54 -62 0
97 0
